language ESSENCE' 1.0
letting n_surgeons be 2
letting n_op be 6
letting n_specialities be 3
letting duration be [0, 4, 2, 4, 1, 0]
letting available_personnel be [4, 5, 3]
letting manning be [
    [0, 0, 0], 
	[0, 4, 2], 
	[0, 1, 1], 
	[3, 0, 0], 
	[1, 3, 1], 
	[0, 0, 0]]
letting n_ordering_relations be 6
letting order be [
    [1, 2], 
	[2, 3], 
	[2, 4], 
	[3, 5], 
	[4, 6],
	[5, 6]
    ]
